Maximize

29.5 b0 + 33.0 b1 + 53.5 b2 + 10 b3 + 38.0 b4 + 53.5 b5 + 10 b6 + 54.5 b7 + 68.0 b8 + 10 b9 + 144.5 b10 + 153.0 b11 + 68.0 b12 + 195.5 b13.v0 + 195.5 b13.v1 + 6 b14 + 10 b15


Subject to

\ === tcfg constraints ===
dSta_0 = 1
b0 - dSta_0 = 0
b0 - d0_1 = 0
b1 - d0_1 = 0
b1 - d1_4 - d1_2 = 0
b2 - d1_2 = 0
b2 - d2_3 = 0
b3 - d2_3 = 0
b4 - d1_4 = 0
b4 - d4_7 - d4_5 = 0
b5 - d4_5 = 0
b5 - d5_6 = 0
b6 - d5_6 = 0
b7 - d4_7 = 0
b7 - d7_10 - d7_8 = 0
b8 - d7_8 = 0
b8 - d8_9 = 0
b9 - d8_9 = 0
b10 - d7_10 = 0
b10 - d10_11 = 0
b11 - d10_11 = 0
b11 - d11_13 - d11_12 = 0
b12 - d11_12 = 0
b12 - d12_13 = 0
b13 - d11_13 - d12_13 = 0
b13 - d13_14 = 0
b14 - d13_14 = 0
b14 - d14_15 = 0
b15 - d14_15 = 0


\ === header constraints ===



\ === context constraints ===
b13 - b13.v0 - b13.v1 = 0
b13.v0 - d11_13 = 0
b13.v1 - d12_13 = 0


\ === inst cache constraints ===



\ === data cache constraints ===



Generals


b0
b1
b2
b3
b4
b5
b6
b7
b8
b9
b10
b11
b12
b13
b13.v0
b13.v1
b14
b15
d0_1
d1_2
d1_4
d2_3
d4_5
d4_7
d5_6
d7_8
d7_10
d8_9
d10_11
d11_12
d11_13
d12_13
d13_14
d14_15
dSta_0


End
\ total cons: 35    total vars: 35
